; benchmark generated from python API
(set-info :status unknown)
(declare-fun x4 () Real)
(declare-fun bool.b19 () Bool)
(declare-fun bool.b17 () Bool)
(declare-fun bool.b24 () Bool)
(declare-fun bool.b18 () Bool)
(declare-fun x3 () Real)
(declare-fun bool.b20 () Bool)
(declare-fun bool.b21 () Bool)
(declare-fun bool.b22 () Bool)
(declare-fun bool.b23 () Bool)
(assert
 (forall ((?lambda Real) )(let ((?x16210 (* 30.0 ?lambda)))
 (let ((?x6859 (+ x4 ?x16210)))
 (let ((?x26295 (- 1.0)))
 (let ((?x13138 (* ?x26295 ?x6859)))
 (let (($x11282 (<= ?x13138 (- 4910.0))))
 (let (($x15605 (not (and bool.b19 $x11282))))
 (let (($x21494 (and bool.b17 (<= ?x13138 (- 4100.0)))))
 (let (($x21897 (not $x21494)))
 (let (($x7081 (and bool.b24 (not (and $x21897 $x15605)))))
 (let (($x22130 (<= ?x13138 (- 4500.0))))
 (let (($x29790 (and bool.b18 $x22130)))
 (let (($x24002 (not (and $x29790 $x7081))))
 (let (($x5273 (not (and (and $x21897 (not $x29790)) $x15605))))
 (let (($x15535 (and bool.b19 $x5273)))
 (let (($x984 (and $x24002 (not (and $x15535 (and $x15605 $x24002))))))
 (let (($x15238 (not $x984)))
 (let (($x24601 (not (and $x11282 $x15238))))
 (let (($x34458 (not (and bool.b24 (and $x22130 $x21494)))))
 (let (($x8651 (and $x34458 (not (and $x15238 (and $x34458 $x24601))))))
 (let (($x39261 (and (not $x11282) (not $x8651))))
 (let (($x6404 (not (<= (* ?x26295 (+ x3 (* 0.0 ?lambda))) (- 20.0)))))
 (let (($x7467 (and (not (and $x6404 (and (not $x22130) $x21494))) (not (and $x6404 $x39261)))))
 (let (($x18809 (<= (+ (* 1.0 (+ x3 (* 0.0 ?lambda))) (* (/ 1.0 15.0) ?x6859)) (/ 964.0 3.0))))
 (let (($x3074 (not $x18809)))
 (let ((?x29967 (+ x3 (* 0.0 ?lambda))))
 (let ((?x16326 (* 1.0 ?x29967)))
 (let (($x10154 (<= ?x16326 0.0)))
 (let (($x15532 (not (and $x10154 $x3074))))
 (let (($x33937 (not $x39261)))
 (let (($x5669 (and (not $x22130) $x21494)))
 (let (($x30974 (not $x5669)))
 (let (($x550 (and $x30974 $x33937)))
 (let (($x18503 (not (and $x29790 (not $x7081)))))
 (let (($x14812 (not (and (<= (* 1.0 ?x6859) 4820.0) (and $x10154 (and bool.b20 $x5273))))))
 (let (($x12309 (and bool.b20 $x5273)))
 (let (($x5280 (and $x10154 $x12309)))
 (let (($x14107 (<= (* 1.0 ?x6859) 4820.0)))
 (let (($x12612 (not $x14107)))
 (let (($x7768 (not (and $x12612 $x5280))))
 (let (($x479 (and $x18503 (not (and $x12309 (and $x7768 (and $x14812 $x18503)))))))
 (let (($x26677 (not $x479)))
 (let (($x39301 (and $x10154 $x26677)))
 (let (($x7044 (not (and $x14107 $x39301))))
 (let (($x30945 (not (and (not bool.b24) (and $x22130 $x21494)))))
 (let (($x13456 (not (and $x12612 $x39301))))
 (let (($x7875 (and $x30945 (not (and $x26677 (and $x13456 (and $x30945 $x7044)))))))
 (let (($x21361 (not $x7875)))
 (let (($x4084 (not $x10154)))
 (let (($x17016 (and $x4084 $x21361)))
 (let (($x20494 (not $x17016)))
 (let (($x2918 (and $x20494 $x550)))
 (let (($x3178 (not (and (and (<= (* ?x26295 ?x29967) (- 30.0)) (<= ?x16326 30.0)) $x39261))))
 (let (($x3498 (not (and (and (<= (* ?x26295 ?x29967) (- 30.0)) (<= ?x16326 30.0)) $x5669))))
 (let (($x20992 (and (and $x3498 $x3178) (not (and $x5273 $x2918)))))
 (let (($x16230 (not $x20992)))
 (let (($x30108 (and bool.b21 $x5273)))
 (let (($x33893 (not $x30108)))
 (let (($x4418 (and $x33893 $x7768)))
 (let (($x20896 (and $x4418 $x13456)))
 (let (($x26594 (not (and (not bool.b24) $x29790))))
 (let (($x10411 (and (and $x26594 (not (and $x14107 (and bool.b20 $x10154)))) (not (and $x12612 (and bool.b20 $x10154))))))
 (let (($x608 (not (and $x26594 (not (and bool.b20 $x10411))))))
 (let (($x21134 (and $x10154 $x608)))
 (let (($x31811 (and $x608 (and (not (and $x12612 $x21134)) (and (not (and $x14107 $x21134)) $x30945)))))
 (let (($x11311 (and $x10154 (not (and $x30945 (not $x31811))))))
 (let (($x10060 (and (not (and $x12612 $x11311)) $x20896)))
 (let (($x16136 (and $x2918 $x10060)))
 (let (($x883 (and bool.b22 $x5273)))
 (let (($x29468 (not $x883)))
 (let (($x2259 (and $x29468 $x14812)))
 (let (($x33773 (and $x2259 $x7044)))
 (let (($x13315 (and (not (and $x14107 $x11311)) $x33773)))
 (let (($x22736 (and bool.b23 $x5273)))
 (let (($x3929 (not $x22736)))
 (let (($x19874 (and $x15605 $x3929)))
 (let (($x9716 (and $x19874 $x24601)))
 (let (($x1919 (not (and bool.b24 $x29790))))
 (let (($x5974 (not (and $x1919 (not (and bool.b19 (and $x15605 $x1919)))))))
 (let (($x7950 (and $x11282 (not (and $x34458 (not (and $x5974 (and (not (and $x11282 $x5974)) $x34458))))))))
 (let (($x1604 (and (not $x7950) $x9716)))
 (let (($x39626 (not $x1604)))
 (let (($x15717 (not $x550)))
 (let (($x28049 (and (not (and (not $x29790) (not (and $x15535 (and (not $x29790) $x15605))))) $x5669)))
 (let (($x9252 (not $x28049)))
 (let (($x2823 (not (and (not (and $x17016 $x15717)) (not (and $x20494 (not (and $x9252 $x15717))))))))
 (let (($x503 (and $x13315 (not (and (not (and $x10060 $x2823)) (not (and (not $x2918) (not $x10060))))))))
 (let (($x3302 (not (and $x1604 (not (and (not $x503) (not (and (not $x13315) (not $x16136)))))))))
 (let (($x21696 (and $x10154 (and $x14107 (not (and $x3302 (not (and $x39626 (not (and $x13315 $x16136))))))))))
 (let (($x11576 (and $x1604 (not (and (not (and $x20494 $x13315)) (not (and $x17016 (not $x13315))))))))
 (let (($x7619 (and $x10060 (not (and (not $x11576) (not (and $x39626 (not (and $x20494 $x13315)))))))))
 (let (($x11129 (and (not $x7619) (not (and (not $x10060) (not (and $x1604 (and $x20494 $x13315))))))))
 (let (($x13122 (not (and (not (and $x4084 (not (and $x33937 (and $x30974 $x11129))))) (not $x21696)))))
 (let (($x13512 (not (and $x7467 (not (and (not (and $x20992 $x13122)) (not (and $x15532 $x16230))))))))
 (let (($x14250 (and $x13512 (not (and $x15532 (not $x7467))))))
 (let (($x1639 (<= ?x16326 20.0)))
 (let (($x24901 (and $x1639 (and $x18809 $x17016))))
 (let (($x28932 (not $x24901)))
 (let (($x10151 (and (not (and (not (<= ?x16326 45.0)) $x5669)) (not (and (not (<= ?x16326 45.0)) $x39261)))))
 (let (($x15949 (and (and $x10151 (not (and (not (<= ?x16326 40.0)) (and $x3074 $x21361)))) (and $x28932 $x14250))))
 (let (($x25737 (<= ?x16326 40.0)))
 (let (($x21186 (not (and $x25737 (and (and (<= ?x16326 45.0) (not (<= ?x16326 33.0))) $x39261)))))
 (let (($x14171 (not (and $x25737 (and (and (<= ?x16326 45.0) (not (<= ?x16326 33.0))) $x5669)))))
 (let (($x39637 (and (and $x14171 $x21186) (not (and $x25737 (and (not $x1639) (and $x18809 $x21361)))))))
 (let (($x17126 (and (not (<= (+ ?x16326 (* (/ 3.0 20.0) ?x6859)) 723.0)) (and $x39637 $x15949))))
 (let (($x17297 (and $x1639 (and $x3074 $x17016))))
 (let (($x6998 (and $x17297 (not (and (<= (+ ?x16326 (* (/ 3.0 20.0) ?x6859)) 1200.0) $x17126)))))
 (let (($x22803 (and (<= (+ ?x16326 (* (/ 1.0 20.0) ?x6859)) 400.0) (and (not (<= (+ ?x16326 (* (/ 1.0 20.0) ?x6859)) 241.0)) $x14250))))
 (let (($x16105 (and $x13315 (not (and (not (and $x33937 $x10060)) (not (and $x39261 (not $x10060))))))))
 (let (($x9183 (and $x1604 (not (and (not $x16105) (not (and (not $x13315) (not (and $x33937 $x10060)))))))))
 (let (($x24662 (not (and (not $x9183) (not (and $x39626 (not (and $x13315 (and $x33937 $x10060)))))))))
 (let (($x12062 (and (not (and $x20494 $x24662)) (not (and $x17016 (not (and $x1604 (and $x13315 (and $x33937 $x10060)))))))))
 (let (($x12098 (not (and $x16230 (not (and $x10154 (not (and $x14107 (not (and $x30974 $x12062))))))))))
 (let (($x3451 (and (not (and $x28932 (not (and (not (and $x15532 $x20992)) $x12098)))) (not (and $x24901 (not $x22803))))))
 (let (($x21862 (and (not $x9716) (not (and $x33773 (and $x20896 (and $x7875 (and $x30974 $x8651))))))))
 (let (($x12400 (and (not (and $x7875 (not (and $x9252 (not (and $x30974 $x8651)))))) (not (and $x21361 (not (and $x30974 $x8651)))))))
 (let (($x8959 (and (not (and $x20896 (not $x12400))) (not (and (not $x20896) (not (and $x7875 (and $x30974 $x8651))))))))
 (let (($x22346 (and (not (and $x33773 (not $x8959))) (not (and (not $x33773) (not (and $x20896 (and $x7875 (and $x30974 $x8651)))))))))
 (let (($x7150 (and (and (not (and $x9716 (not $x22346))) (not $x21862)) (and (not (and (not $x17297) (not $x3451))) (not $x6998)))))
 (let (($x2051 (not (and $x479 (not (and (not (and $x21897 $x984)) (not (and $x21494 $x15238))))))))
 (let (($x30363 (not (and $x4418 (not (and $x2051 (not (and $x26677 (not (and $x21897 $x984))))))))))
 (let (($x10560 (and (not $x4418) (not (and (and $x21897 (not $x29790)) (not (and $x4084 $x12309)))))))
 (let (($x33786 (and (not $x2259) (not (and $x4418 (and (and $x21897 (not $x29790)) (not (and $x4084 $x12309))))))))
 (let (($x32330 (and $x19874 (not (and (not $x33786) (not (and $x2259 (not (and (not $x10560) $x30363)))))))))
 (let (($x23284 (not $x29790)))
 (let (($x3896 (and $x21897 $x23284)))
 (let (($x11698 (and $x3896 (not (and $x4084 $x12309)))))
 (let (($x11899 (and $x4418 $x11698)))
 (let (($x12693 (and (and (not (and (not $x19874) (not (and $x2259 $x11899)))) (not $x32330)) (not (and $x15532 (not $x7150))))))
 (let (($x12770 (and (not (and bool.b18 $x5273)) (not $x15535))))
 (let (($x15584 (not $x12309)))
 (let (($x7974 (and $x15584 $x12770)))
 (let (($x232 (and $x33893 $x7974)))
 (let (($x9859 (and $x29468 $x232)))
 (let (($x24864 (and $x15584 (not (and (not $x12770) (not (and bool.b19 (and bool.b18 $x5273))))))))
 (let (($x203 (and (not (and $x33893 (not (and (not $x24864) (not (and $x12309 (not $x12770))))))) (not (and $x30108 (not $x7974))))))
 (let (($x23076 (and $x3929 (not (and (not (and $x29468 (not $x203))) (not (and $x883 (not $x232))))))))
 (let (($x4242 (and (not (and $x21897 (not (and (not $x23076) (not (and $x22736 (not $x9859))))))) (not (and $x21494 (not (and $x3929 $x9859)))))))
 (let (($x30585 (not bool.b21)))
 (let (($x10110 (not bool.b19)))
 (let (($x30655 (and $x10110 $x30585)))
 (let (($x2549 (not bool.b22)))
 (let (($x21912 (and $x2549 $x30655)))
 (let (($x7850 (not bool.b23)))
 (let (($x8838 (not (and $x2549 (not (and (not $x30655) (not (and bool.b19 bool.b21))))))))
 (let (($x2776 (not (and $x7850 (not (and $x8838 (not (and bool.b22 (not $x30655)))))))))
 (let (($x9917 (not bool.b20)))
 (let (($x581 (and (not (and $x9917 (not (and $x2776 (not (and bool.b23 (not $x21912))))))) (not (and bool.b20 (not (and $x7850 $x21912)))))))
 (let (($x2314 (not bool.b17)))
 (let (($x20654 (not bool.b18)))
 (let (($x32457 (and (not (and $x10154 (not (and $x14107 (not (and $x20654 (and $x2314 $x581))))))) (not (and $x4242 (not (and $x15532 (not $x12693))))))))
 (let (($x12106 (exists ((?lambdaprime Real) )(! (let ((?x16210 (* 30.0 ?lambdaprime)))
 (let ((?x6859 (+ x4 ?x16210)))
 (let ((?x26295 (- 1.0)))
 (let ((?x13138 (* ?x26295 ?x6859)))
 (let (($x11282 (<= ?x13138 (- 4910.0))))
 (let (($x15605 (not (and bool.b19 $x11282))))
 (let (($x22130 (<= ?x13138 (- 4500.0))))
 (let (($x29790 (and bool.b18 $x22130)))
 (let (($x23284 (not $x29790)))
 (let (($x21494 (and bool.b17 (<= ?x13138 (- 4100.0)))))
 (let (($x21897 (not $x21494)))
 (let (($x3896 (and $x21897 $x23284)))
 (let (($x5273 (not (and $x3896 $x15605))))
 (and (and (<= 0.0 ?lambdaprime) (<= ?lambdaprime ?lambda)) $x5273)))))))))))))) :qid k!25))
 ))
 (or (or $x12106 (< ?lambda 0.0)) $x32457)))))))))))))))))))))))))))))))))))))))))))))))))))))))))))))))))))))))))))))))))))))))))))))))))))))))))))))))))))))))))))))))))))))))))))))))))))))))))
 )
(check-sat)
